c File: flat50_3_0.col
c
c SOURCE: Joseph Culberson (joe@cs.ualberta.ca)
c DESCRIPTION: Quasi-random coloring problem
c              generated with flatness = 0
c                             probability = 0.139
c                             known coloring = 3
c                             random seed = 1658
c              Creation Date:  Tue Jun  9 12:14:42 1998
c Maximum degree = 8 Minimum degree = 1
c p edge 50 115
c cnf created by edge2cnf
p cnf 150 545
-1 -2 0
-1 -3 0
-2 -3 0
1 2 3 0
-4 -5 0
-4 -6 0
-5 -6 0
4 5 6 0
-7 -8 0
-7 -9 0
-8 -9 0
7 8 9 0
-10 -11 0
-10 -12 0
-11 -12 0
10 11 12 0
-13 -14 0
-13 -15 0
-14 -15 0
13 14 15 0
-16 -17 0
-16 -18 0
-17 -18 0
16 17 18 0
-19 -20 0
-19 -21 0
-20 -21 0
19 20 21 0
-22 -23 0
-22 -24 0
-23 -24 0
22 23 24 0
-25 -26 0
-25 -27 0
-26 -27 0
25 26 27 0
-28 -29 0
-28 -30 0
-29 -30 0
28 29 30 0
-31 -32 0
-31 -33 0
-32 -33 0
31 32 33 0
-34 -35 0
-34 -36 0
-35 -36 0
34 35 36 0
-37 -38 0
-37 -39 0
-38 -39 0
37 38 39 0
-40 -41 0
-40 -42 0
-41 -42 0
40 41 42 0
-43 -44 0
-43 -45 0
-44 -45 0
43 44 45 0
-46 -47 0
-46 -48 0
-47 -48 0
46 47 48 0
-49 -50 0
-49 -51 0
-50 -51 0
49 50 51 0
-52 -53 0
-52 -54 0
-53 -54 0
52 53 54 0
-55 -56 0
-55 -57 0
-56 -57 0
55 56 57 0
-58 -59 0
-58 -60 0
-59 -60 0
58 59 60 0
-61 -62 0
-61 -63 0
-62 -63 0
61 62 63 0
-64 -65 0
-64 -66 0
-65 -66 0
64 65 66 0
-67 -68 0
-67 -69 0
-68 -69 0
67 68 69 0
-70 -71 0
-70 -72 0
-71 -72 0
70 71 72 0
-73 -74 0
-73 -75 0
-74 -75 0
73 74 75 0
-76 -77 0
-76 -78 0
-77 -78 0
76 77 78 0
-79 -80 0
-79 -81 0
-80 -81 0
79 80 81 0
-82 -83 0
-82 -84 0
-83 -84 0
82 83 84 0
-85 -86 0
-85 -87 0
-86 -87 0
85 86 87 0
-88 -89 0
-88 -90 0
-89 -90 0
88 89 90 0
-91 -92 0
-91 -93 0
-92 -93 0
91 92 93 0
-94 -95 0
-94 -96 0
-95 -96 0
94 95 96 0
-97 -98 0
-97 -99 0
-98 -99 0
97 98 99 0
-100 -101 0
-100 -102 0
-101 -102 0
100 101 102 0
-103 -104 0
-103 -105 0
-104 -105 0
103 104 105 0
-106 -107 0
-106 -108 0
-107 -108 0
106 107 108 0
-109 -110 0
-109 -111 0
-110 -111 0
109 110 111 0
-112 -113 0
-112 -114 0
-113 -114 0
112 113 114 0
-115 -116 0
-115 -117 0
-116 -117 0
115 116 117 0
-118 -119 0
-118 -120 0
-119 -120 0
118 119 120 0
-121 -122 0
-121 -123 0
-122 -123 0
121 122 123 0
-124 -125 0
-124 -126 0
-125 -126 0
124 125 126 0
-127 -128 0
-127 -129 0
-128 -129 0
127 128 129 0
-130 -131 0
-130 -132 0
-131 -132 0
130 131 132 0
-133 -134 0
-133 -135 0
-134 -135 0
133 134 135 0
-136 -137 0
-136 -138 0
-137 -138 0
136 137 138 0
-139 -140 0
-139 -141 0
-140 -141 0
139 140 141 0
-142 -143 0
-142 -144 0
-143 -144 0
142 143 144 0
-145 -146 0
-145 -147 0
-146 -147 0
145 146 147 0
-148 -149 0
-148 -150 0
-149 -150 0
148 149 150 0
-64 -1 0
-65 -2 0
-66 -3 0
-70 -1 0
-71 -2 0
-72 -3 0
-85 -1 0
-86 -2 0
-87 -3 0
-97 -1 0
-98 -2 0
-99 -3 0
-127 -1 0
-128 -2 0
-129 -3 0
-139 -1 0
-140 -2 0
-141 -3 0
-145 -1 0
-146 -2 0
-147 -3 0
-148 -1 0
-149 -2 0
-150 -3 0
-73 -4 0
-74 -5 0
-75 -6 0
-61 -7 0
-62 -8 0
-63 -9 0
-70 -7 0
-71 -8 0
-72 -9 0
-79 -7 0
-80 -8 0
-81 -9 0
-103 -7 0
-104 -8 0
-105 -9 0
-130 -7 0
-131 -8 0
-132 -9 0
-136 -7 0
-137 -8 0
-138 -9 0
-142 -7 0
-143 -8 0
-144 -9 0
-100 -10 0
-101 -11 0
-102 -12 0
-103 -10 0
-104 -11 0
-105 -12 0
-124 -10 0
-125 -11 0
-126 -12 0
-142 -10 0
-143 -11 0
-144 -12 0
-91 -13 0
-92 -14 0
-93 -15 0
-94 -13 0
-95 -14 0
-96 -15 0
-130 -13 0
-131 -14 0
-132 -15 0
-52 -16 0
-53 -17 0
-54 -18 0
-61 -16 0
-62 -17 0
-63 -18 0
-79 -16 0
-80 -17 0
-81 -18 0
-85 -16 0
-86 -17 0
-87 -18 0
-139 -16 0
-140 -17 0
-141 -18 0
-142 -16 0
-143 -17 0
-144 -18 0
-88 -19 0
-89 -20 0
-90 -21 0
-91 -19 0
-92 -20 0
-93 -21 0
-112 -19 0
-113 -20 0
-114 -21 0
-61 -22 0
-62 -23 0
-63 -24 0
-91 -22 0
-92 -23 0
-93 -24 0
-112 -22 0
-113 -23 0
-114 -24 0
-115 -22 0
-116 -23 0
-117 -24 0
-136 -22 0
-137 -23 0
-138 -24 0
-52 -25 0
-53 -26 0
-54 -27 0
-94 -25 0
-95 -26 0
-96 -27 0
-115 -25 0
-116 -26 0
-117 -27 0
-148 -25 0
-149 -26 0
-150 -27 0
-79 -28 0
-80 -29 0
-81 -30 0
-112 -28 0
-113 -29 0
-114 -30 0
-118 -28 0
-119 -29 0
-120 -30 0
-130 -28 0
-131 -29 0
-132 -30 0
-136 -28 0
-137 -29 0
-138 -30 0
-55 -31 0
-56 -32 0
-57 -33 0
-76 -31 0
-77 -32 0
-78 -33 0
-79 -31 0
-80 -32 0
-81 -33 0
-97 -31 0
-98 -32 0
-99 -33 0
-103 -31 0
-104 -32 0
-105 -33 0
-88 -34 0
-89 -35 0
-90 -36 0
-91 -34 0
-92 -35 0
-93 -36 0
-94 -34 0
-95 -35 0
-96 -36 0
-106 -34 0
-107 -35 0
-108 -36 0
-148 -34 0
-149 -35 0
-150 -36 0
-52 -37 0
-53 -38 0
-54 -39 0
-61 -37 0
-62 -38 0
-63 -39 0
-67 -37 0
-68 -38 0
-69 -39 0
-94 -37 0
-95 -38 0
-96 -39 0
-109 -37 0
-110 -38 0
-111 -39 0
-127 -37 0
-128 -38 0
-129 -39 0
-118 -40 0
-119 -41 0
-120 -42 0
-121 -40 0
-122 -41 0
-123 -42 0
-76 -43 0
-77 -44 0
-78 -45 0
-100 -43 0
-101 -44 0
-102 -45 0
-112 -43 0
-113 -44 0
-114 -45 0
-115 -43 0
-116 -44 0
-117 -45 0
-133 -43 0
-134 -44 0
-135 -45 0
-88 -46 0
-89 -47 0
-90 -48 0
-139 -46 0
-140 -47 0
-141 -48 0
-52 -49 0
-53 -50 0
-54 -51 0
-55 -49 0
-56 -50 0
-57 -51 0
-67 -49 0
-68 -50 0
-69 -51 0
-73 -49 0
-74 -50 0
-75 -51 0
-118 -49 0
-119 -50 0
-120 -51 0
-124 -49 0
-125 -50 0
-126 -51 0
-106 -52 0
-107 -53 0
-108 -54 0
-115 -52 0
-116 -53 0
-117 -54 0
-127 -52 0
-128 -53 0
-129 -54 0
-139 -55 0
-140 -56 0
-141 -57 0
-148 -55 0
-149 -56 0
-150 -57 0
-109 -58 0
-110 -59 0
-111 -60 0
-130 -58 0
-131 -59 0
-132 -60 0
-109 -61 0
-110 -62 0
-111 -63 0
-130 -61 0
-131 -62 0
-132 -63 0
-136 -61 0
-137 -62 0
-138 -63 0
-142 -61 0
-143 -62 0
-144 -63 0
-118 -64 0
-119 -65 0
-120 -66 0
-130 -64 0
-131 -65 0
-132 -66 0
-106 -67 0
-107 -68 0
-108 -69 0
-133 -67 0
-134 -68 0
-135 -69 0
-142 -70 0
-143 -71 0
-144 -72 0
-106 -73 0
-107 -74 0
-108 -75 0
-109 -73 0
-110 -74 0
-111 -75 0
-124 -73 0
-125 -74 0
-126 -75 0
-133 -73 0
-134 -74 0
-135 -75 0
-112 -76 0
-113 -77 0
-114 -78 0
-121 -76 0
-122 -77 0
-123 -78 0
-136 -76 0
-137 -77 0
-138 -78 0
-139 -76 0
-140 -77 0
-141 -78 0
-118 -79 0
-119 -80 0
-120 -81 0
-124 -79 0
-125 -80 0
-126 -81 0
-148 -79 0
-149 -80 0
-150 -81 0
-115 -82 0
-116 -83 0
-117 -84 0
-103 -85 0
-104 -86 0
-105 -87 0
-148 -85 0
-149 -86 0
-150 -87 0
-115 -88 0
-116 -89 0
-117 -90 0
-124 -88 0
-125 -89 0
-126 -90 0
-136 -88 0
-137 -89 0
-138 -90 0
-139 -91 0
-140 -92 0
-141 -93 0
-127 -94 0
-128 -95 0
-129 -96 0
-136 -94 0
-137 -95 0
-138 -96 0
-106 -97 0
-107 -98 0
-108 -99 0
-130 -100 0
-131 -101 0
-132 -102 0
